NAME: P-n19-k2
TYPE: CVRP
DIMENSION: 19
EDGE_WEIGHT_TYPE: EUC_2D
CAPACITY: 160
NODE_COORD_SECTION
1 30 40
2 37 52
3 49 49
4 52 64
5 30 60
6 40 66
7 60 58
8 62 42
9 42 57
10 50 35
11 55 28
12 38 30
13 30 25
14 42 41
15 50 55
16 58 50
17 61 35
18 35 42
19 45 60
DEMAND_SECTION
1 0
2 19
3 22
4 18
5 25
6 15
7 12
8 30
9 8
10 14
11 7
12 21
13 15
14 16
15 29
16 11
17 10
18 18
19 5
DEPOT_SECTION
1
-1
EOF